10J3M/DAT/10J3MNLR-14.dat
10 3
23.5677 34.4401
22.9557 33.6613
29.735 48.3402
23.2993 20.5978
23.5964 26.1835
29.1889 20.2084
29.2118 30.5332
28.1597 43.9405
28.8881 37.811
34.73 14.5986
103.4382