10J3M/SOL/10J3MNLR-14.sol
solution status: optimal solution found
objective value:                     91.1108666666667
x#1#1                                               1 	(obj:0)
x#2#2                                               1 	(obj:0)
x#3#2                               0.139255378470172 	(obj:0)
x#3#3                               0.860744621529828 	(obj:0)
x#4#1                                               1 	(obj:0)
x#5#1                                               1 	(obj:0)
x#6#2                               0.724609775780955 	(obj:0)
x#6#3                               0.275390224219045 	(obj:0)
x#7#2                                               1 	(obj:0)
x#8#3                                               1 	(obj:0)
x#9#1                               0.527416282013585 	(obj:0)
x#9#2                               0.472583717986415 	(obj:0)
x#10#1                              0.155813773977254 	(obj:0)
x#10#3                              0.844186226022746 	(obj:0)
z                                    91.1108666666667 	(obj:1)
